language Essence 1.3

letting p be
        partition({1, 11, 13, 14, 16, 17, 19, 23, 25, 32, 35, 36, 38, 42, 43, 46, 48, 49, 51, 55},
                  {2, 4, 5, 7, 8, 9, 12, 18, 21, 22, 27, 30, 33, 34, 37, 40, 44, 54},
                  {3, 6, 10, 15, 20, 24, 26, 28, 29, 31, 39, 41, 45, 47, 50, 52, 53})
